Solving original (integer) problem with strategy gdp.hull_exact...
--- Job model.gms Start 02/15/26 22:15:40 52.2.0 d8e408be LEX-LEG x86 64bit/Linux
--- Applying:
    /package/gams/52.2/gmsprmun.txt
--- GAMS Parameters defined
    Input /local/scratch/a/sgusev/repos/k_means/data/gams_scip_gdp.hull_exact/no_mode/2026-02-15_22-15-40/original/model.gms
    Output /local/scratch/a/sgusev/repos/k_means/data/gams_scip_gdp.hull_exact/no_mode/2026-02-15_22-15-40/original/output.lst
    ScrDir /local/scratch/a/sgusev/repos/k_means/data/gams_scip_gdp.hull_exact/no_mode/2026-02-15_22-15-40/original/225a/
    SysDir /package/gams/52.2/
    CurDir /local/scratch/a/sgusev/repos/k_means/data/gams_scip_gdp.hull_exact/no_mode/2026-02-15_22-15-40/original/
    LogOption 3
    AppendLog 1
Licensee: David Bernal / SECQUOIA Research Group         G251008+0003Ac-GEN
          Purdue University, Davidson School of Chemical EngineeringDCE4838
          225a/gamslice.dat
          5a82958a-fbca-4a23
          node:66820903 mem:995 cores:48 ipport:35099 v:2                  
          Evaluation license: Not for commercial or production use
          The time-limited license stops working on : Jun 30, 2027
System information: 48 physical cores and 995 Gb physical memory detected
GAMS 52.2.0   Copyright (C) 1987-2025 GAMS Development. All rights reserved
--- Starting compilation
--- model.gms(2005) 2 Mb
--- $echo File /local/scratch/a/sgusev/repos/k_means/data/gams_scip_gdp.hull_exact/no_mode/2026-02-15_22-15-40/original/scip.opt
--- model.gms(2985) 2 Mb
--- Starting execution: elapsed 0:00:00.013
--- model.gms(2015) 3 Mb
--- Generating MINLP model GAMS_MODEL
--- model.gms(2019) 5 Mb
---   604 rows  309 columns  1,471 non-zeroes
---   1,008 nl-code  192 nl-non-zeroes
---   48 discrete-columns
--- Range statistics (absolute non-zero finite values)
--- RHS       [min, max] : [ 1.000E+00, 1.000E+00] - Zero values observed as well
--- Bound     [min, max] : [ 1.000E+00, 4.800E+01] - Zero values observed as well
--- Matrix    [min, max] : [ 1.000E+00, 4.800E+01] - Zero values observed as well
--- model.gms(2019) 3 Mb
--- Executing SCIP (Solvelink=5): elapsed 0:00:00.018

SCIP             52.2.0 d8e408be Dec 8, 2025           LEG x86 64bit/Linux    
SCIP version 9.2.4 (a94f778ac8)
Copyright (c) 2002-2025 Zuse Institute Berlin (ZIB)

External libraries: 
  CPLEX 22.1.2.0       Linear Programming Solver developed by IBM (www.cplex.com)
  CppAD 20180000.0     Algorithmic Differentiation of C++ algorithms developed by B. Bell (github.com/coin-or/CppAD)
  PaPILO 2.4.4         parallel presolve for integer and linear optimization (github.com/scipopt/papilo) (built with TBB) [GitHash: 7c826d50]
  Nauty 2.8.9          Computing Graph Automorphism Groups by Brendan D. McKay (users.cecs.anu.edu.au/~bdm/nauty)
  sassy 1.1            Symmetry preprocessor by Markus Anders (github.com/markusa4/sassy)
  Ipopt 3.14.19        Interior Point Optimizer developed by A. Waechter et.al. (github.com/coin-or/Ipopt)

reading option file /local/scratch/a/sgusev/repos/k_means/data/gams_scip_gdp.hull_exact/no_mode/2026-02-15_22-15-40/original/scip.opt
non-default parameter settings:
limits/time = 300
limits/gap = 1e-06
limits/absgap = 1e-10
lp/threads = 1
misc/printreason = FALSE
numerics/dualfeastol = 1e-06
parallel/maxnthreads = 1
nlpi/ipopt/linear_solver = "ma27"
nlpi/ipopt/linear_system_scaling = "mc19"

original problem has 308 variables (48 bin, 0 int, 260 cont) and 603 constraints

all 1 solutions given by solution candidate storage are infeasible

presolving:
(round 1, fast)       12 del vars, 0 del conss, 0 add conss, 0 chg bounds, 0 chg sides, 0 chg coeffs, 0 upgd conss, 0 impls, 12 clqs
(round 2, fast)       12 del vars, 0 del conss, 0 add conss, 0 chg bounds, 12 chg sides, 0 chg coeffs, 0 upgd conss, 0 impls, 12 clqs
(round 3, exhaustive) 12 del vars, 0 del conss, 0 add conss, 0 chg bounds, 12 chg sides, 0 chg coeffs, 444 upgd conss, 0 impls, 12 clqs
   (0.0s) probing cycle finished: starting next cycle
   (0.0s) symmetry computation started: requiring (bin +, int +, cont +), (fixed: bin -, int -, cont -)
   (0.0s) no symmetry present (symcode time: 0.00)
presolving (4 rounds: 4 fast, 2 medium, 2 exhaustive):
 12 deleted vars, 0 deleted constraints, 0 added constraints, 0 tightened bounds, 0 added holes, 12 changed sides, 0 changed coefficients
 1152 implications, 12 cliques
presolved problem has 296 variables (48 bin, 0 int, 0 impl, 248 cont) and 603 constraints
    432 constraints of type <varbound>
     12 constraints of type <setppc>
    111 constraints of type <linear>
     48 constraints of type <nonlinear>
Presolving Time: 0.02

 time | node  | left  |LP iter|LP it/n|mem/heur|mdpt |vars |cons |rows |cuts |sepa|confs|strbr|  dualbound   | primalbound  |  gap   | compl. 
  0.1s|     1 |     0 |   308 |     - |  6849k |   0 | 584 | 603 | 939 |   0 |  0 |   0 |   0 | 0.000000e+00 |      --      |    Inf | unknown
p 0.1s|     1 |     0 |   420 |     - |  clique|   0 | 584 | 603 | 939 |   0 |  0 |   0 |   0 | 0.000000e+00 | 6.988571e+00 |    Inf | unknown
  0.1s|     1 |     0 |   504 |     - |  7496k |   0 | 584 | 603 |1004 |  65 |  1 |   0 |   0 | 0.000000e+00 | 6.988571e+00 |    Inf | unknown
  0.1s|     1 |     0 |   504 |     - |  7510k |   0 | 584 | 603 | 992 |  65 |  1 |   0 |   0 | 0.000000e+00 | 6.988571e+00 |    Inf | unknown
  0.1s|     1 |     0 |   558 |     - |  7748k |   0 | 584 | 603 |1037 | 110 |  2 |   0 |   0 | 0.000000e+00 | 6.988571e+00 |    Inf | unknown
  0.1s|     1 |     0 |   611 |     - |  7918k |   0 | 584 | 603 |1080 | 153 |  3 |   0 |   0 | 0.000000e+00 | 6.988571e+00 |    Inf | unknown
  0.1s|     1 |     0 |   683 |     - |  8071k |   0 | 584 | 603 |1126 | 199 |  4 |   0 |   0 | 0.000000e+00 | 6.988571e+00 |    Inf | unknown
  0.1s|     1 |     0 |   751 |     - |  9161k |   0 | 584 | 603 |1171 | 244 |  5 |   0 |   0 | 0.000000e+00 | 6.988571e+00 |    Inf | unknown
  0.2s|     1 |     0 |   823 |     - |  9366k |   0 | 584 | 603 |1215 | 288 |  6 |   0 |   0 | 0.000000e+00 | 6.988571e+00 |    Inf | unknown
  0.2s|     1 |     0 |   913 |     - |  9517k |   0 | 584 | 603 |1257 | 330 |  7 |   0 |   0 | 0.000000e+00 | 6.988571e+00 |    Inf | unknown
  0.2s|     1 |     0 |  1003 |     - |  9794k |   0 | 584 | 603 |1306 | 379 |  8 |   0 |   0 | 0.000000e+00 | 6.988571e+00 |    Inf | unknown
  0.3s|     1 |     0 |  1071 |     - |    10M |   0 | 584 | 603 |1352 | 425 |  9 |   0 |   0 | 0.000000e+00 | 6.988571e+00 |    Inf | unknown
  0.3s|     1 |     0 |  1157 |     - |    10M |   0 | 584 | 603 |1147 | 474 | 10 |   0 |   0 | 0.000000e+00 | 6.988571e+00 |    Inf | unknown
  0.3s|     1 |     0 |  1241 |     - |    10M |   0 | 584 | 603 |1184 | 511 | 11 |   0 |   0 | 0.000000e+00 | 6.988571e+00 |    Inf | unknown
d 1.0s|     1 |     0 |  3183 |     - |    mpec|   0 | 584 | 591 |1184 | 511 | 11 |   0 |   0 | 0.000000e+00 | 1.999135e+00 |    Inf | unknown
 time | node  | left  |LP iter|LP it/n|mem/heur|mdpt |vars |cons |rows |cuts |sepa|confs|strbr|  dualbound   | primalbound  |  gap   | compl. 
  1.0s|     1 |     0 |  3183 |     - |    10M |   0 | 584 | 591 |1184 | 511 | 11 |   0 |   0 | 0.000000e+00 | 1.999135e+00 |    Inf | unknown
  1.0s|     1 |     0 |  3237 |     - |    10M |   0 | 584 | 591 |1217 | 544 | 12 |   0 |   0 | 0.000000e+00 | 1.999135e+00 |    Inf | unknown
  1.0s|     1 |     0 |  3276 |     - |    10M |   0 | 584 | 591 |1233 | 560 | 13 |   0 |   0 | 0.000000e+00 | 1.999135e+00 |    Inf | unknown
  1.1s|     1 |     0 |  3276 |     - |    11M |   0 | 584 | 591 |1233 | 560 | 13 |   0 |  20 | 0.000000e+00 | 1.999135e+00 |    Inf | unknown
  1.1s|     1 |     0 |  3321 |     - |    11M |   0 | 584 | 591 |1264 | 591 | 14 |   0 |  20 | 0.000000e+00 | 1.999135e+00 |    Inf | unknown
  1.1s|     1 |     0 |  3362 |     - |    11M |   0 | 584 | 591 |1274 | 601 | 15 |   0 |  20 | 0.000000e+00 | 1.999135e+00 |    Inf | unknown
  1.2s|     1 |     0 |  3362 |     - |    11M |   0 | 584 | 591 |1274 | 601 | 15 |   0 |  33 | 0.000000e+00 | 1.999135e+00 |    Inf | unknown
  1.2s|     1 |     0 |  3417 |     - |    11M |   0 | 584 | 591 |1065 | 633 | 16 |   0 |  33 | 0.000000e+00 | 1.999135e+00 |    Inf | unknown
  1.2s|     1 |     0 |  3442 |     - |    11M |   0 | 584 | 591 |1074 | 642 | 17 |   0 |  33 | 0.000000e+00 | 1.999135e+00 |    Inf | unknown
  1.2s|     1 |     2 |  3442 |     - |    11M |   0 | 584 | 591 |1074 | 642 | 17 |   0 |  34 | 0.000000e+00 | 1.999135e+00 |    Inf | unknown
  2.3s|   100 |    85 | 15880 | 146.5 |    17M |  18 | 584 | 591 |1144 |6510 |  2 |   9 | 226 | 0.000000e+00 | 1.999135e+00 |    Inf |  18.94%
L 2.7s|   143 |   120 | 20374 | 133.8 |    alns|  20 | 584 | 591 |1161 |8414 |  3 |   9 | 231 | 0.000000e+00 | 1.872559e+00 |    Inf |  20.68%
  3.2s|   200 |   165 | 27386 | 130.7 |    20M |  23 | 584 | 591 |1137 |  11k|  3 |  17 | 236 | 0.000000e+00 | 1.872559e+00 |    Inf |  20.79%
  3.8s|   300 |   245 | 38291 | 123.4 |    21M |  25 | 584 | 591 |1209 |  15k|  7 |  25 | 237 | 0.000000e+00 | 1.872559e+00 |    Inf |  21.52%
L 4.4s|   349 |   260 | 45070 | 125.5 |    rins|  25 | 584 | 591 |1223 |  18k|  6 |  26 | 237 | 0.000000e+00 | 1.560048e+00 |    Inf |  24.29%
 time | node  | left  |LP iter|LP it/n|mem/heur|mdpt |vars |cons |rows |cuts |sepa|confs|strbr|  dualbound   | primalbound  |  gap   | compl. 
  4.7s|   400 |   299 | 50426 | 122.9 |    25M |  25 | 584 | 591 |1171 |  21k| 11 |  32 | 237 | 0.000000e+00 | 1.560048e+00 |    Inf |  24.83%
  5.4s|   500 |   377 | 60800 | 119.1 |    26M |  25 | 584 | 591 |1164 |  25k|  6 |  46 | 239 | 0.000000e+00 | 1.560048e+00 |    Inf |  25.07%
L 5.4s|   501 |   313 | 61030 | 119.3 |    gins|  25 | 584 | 591 |1195 |  25k|  6 |  46 | 239 | 0.000000e+00 | 1.295094e+00 |    Inf |  34.45%
  6.1s|   600 |   378 | 73843 | 121.0 |    29M |  25 | 584 | 591 |1160 |  30k|  1 |  61 | 248 | 0.000000e+00 | 1.295094e+00 |    Inf |  35.08%
L 6.1s|   601 |   271 | 73954 | 121.0 |    gins|  25 | 584 | 591 |1112 |  30k|  2 |  61 | 248 | 0.000000e+00 | 9.484573e-01 |    Inf |  36.92%
  6.6s|   700 |   288 | 80157 | 112.7 |    29M |  25 | 584 | 591 |1220 |  33k|  6 |  70 | 259 | 0.000000e+00 | 9.484573e-01 |    Inf |  39.45%
  7.1s|   800 |   320 | 87703 | 108.0 |    30M |  26 | 584 | 591 |1145 |  36k|  2 |  86 | 271 | 0.000000e+00 | 9.484573e-01 |    Inf |  40.80%
  7.7s|   900 |   336 | 94069 | 103.1 |    31M |  27 | 584 | 593 |1135 |  38k|  2 |  96 | 275 | 8.790300e-03 | 9.484573e-01 |  Large |  46.03%
  8.2s|  1000 |   348 | 99934 |  98.7 |    33M |  28 | 584 | 593 |1173 |  41k|  2 | 105 | 287 | 2.639289e-02 | 9.484573e-01 |3493.61%|  49.73%
  8.6s|  1100 |   360 |104499 |  93.8 |    33M |  29 | 584 | 593 |1149 |  44k|  0 | 119 | 299 | 4.831647e-02 | 9.484573e-01 |1863.01%|  53.51%
  9.1s|  1200 |   382 |111129 |  91.5 |    34M |  29 | 584 | 593 |1116 |  46k|  0 | 125 | 306 | 1.552909e-01 | 9.484573e-01 | 510.76%|  55.69%
  9.5s|  1300 |   386 |114766 |  87.3 |    34M |  31 | 584 | 593 |1227 |  48k|  8 | 133 | 316 | 1.660913e-01 | 9.484573e-01 | 471.05%|  58.77%
  9.8s|  1400 |   402 |117620 |  83.1 |    36M |  31 | 584 | 593 |1250 |  50k|  3 | 142 | 323 | 1.660913e-01 | 9.484573e-01 | 471.05%|  59.30%
 10.1s|  1500 |   402 |120625 |  79.5 |    37M |  31 | 584 | 593 |1239 |  51k|  4 | 148 | 324 | 1.660913e-01 | 9.484573e-01 | 471.05%|  60.97%
 10.4s|  1600 |   406 |124710 |  77.1 |    37M |  31 | 584 | 593 |1176 |  53k|  0 | 152 | 326 | 1.865466e-01 | 9.484573e-01 | 408.43%|  63.57%
 time | node  | left  |LP iter|LP it/n|mem/heur|mdpt |vars |cons |rows |cuts |sepa|confs|strbr|  dualbound   | primalbound  |  gap   | compl. 
 10.9s|  1700 |   422 |128382 |  74.8 |    38M |  31 | 584 | 593 |1132 |  55k|  4 | 159 | 328 | 2.118543e-01 | 9.484573e-01 | 347.69%|  64.70%
 11.2s|  1800 |   444 |131467 |  72.3 |    38M |  31 | 584 | 593 |1234 |  57k|  6 | 166 | 333 | 2.165417e-01 | 9.484573e-01 | 338.00%|  65.00%
 11.6s|  1900 |   444 |135854 |  70.8 |    39M |  31 | 584 | 593 |1113 |  59k|  7 | 174 | 347 | 2.165417e-01 | 9.484573e-01 | 338.00%|  67.13%
 11.9s|  2000 |   448 |139059 |  68.9 |    39M |  31 | 584 | 593 |1240 |  60k|  0 | 190 | 359 | 2.165417e-01 | 9.484573e-01 | 338.00%|  68.61%
 12.2s|  2100 |   448 |141342 |  66.7 |    39M |  31 | 584 | 593 |1355 |  61k|  1 | 193 | 363 | 2.165417e-01 | 9.484573e-01 | 338.00%|  68.96%
 12.5s|  2200 |   458 |145259 |  65.4 |    39M |  31 | 584 | 593 |   0 |  63k|  0 | 200 | 372 | 2.200087e-01 | 9.484573e-01 | 331.10%|  69.76%
 12.9s|  2300 |   470 |149704 |  64.5 |    40M |  31 | 584 | 593 |1190 |  65k|  1 | 205 | 379 | 2.375979e-01 | 9.484573e-01 | 299.19%|  71.40%
 13.3s|  2400 |   480 |153672 |  63.5 |    41M |  31 | 584 | 593 |1259 |  67k|  2 | 213 | 387 | 2.375979e-01 | 9.484573e-01 | 299.19%|  71.83%
 13.6s|  2500 |   484 |157294 |  62.4 |    42M |  31 | 584 | 593 |1265 |  68k|  2 | 223 | 391 | 2.464251e-01 | 9.484573e-01 | 284.89%|  72.83%
 13.8s|  2600 |   478 |159907 |  61.0 |    42M |  31 | 584 | 593 |1148 |  69k|  1 | 228 | 394 | 3.003206e-01 | 9.484573e-01 | 215.81%|  73.99%
 14.1s|  2700 |   480 |162273 |  59.6 |    42M |  31 | 584 | 593 |1229 |  71k|  5 | 231 | 395 | 3.089620e-01 | 9.484573e-01 | 206.98%|  74.17%
 14.4s|  2800 |   468 |165761 |  58.7 |    42M |  31 | 584 | 594 |1110 |  72k|  2 | 244 | 402 | 3.430651e-01 | 9.484573e-01 | 176.47%|  75.54%
 14.7s|  2900 |   458 |168254 |  57.6 |    42M |  31 | 584 | 594 |1154 |  73k|  1 | 252 | 404 | 3.430651e-01 | 9.484573e-01 | 176.47%|  76.37%
 15.0s|  3000 |   468 |170897 |  56.5 |    42M |  31 | 584 | 594 |1198 |  74k|  2 | 263 | 413 | 3.655282e-01 | 9.484573e-01 | 159.48%|  77.11%
 15.3s|  3100 |   490 |175537 |  56.2 |    43M |  31 | 584 | 594 |1121 |  76k|  2 | 273 | 422 | 3.870444e-01 | 9.484573e-01 | 145.05%|  77.52%
 time | node  | left  |LP iter|LP it/n|mem/heur|mdpt |vars |cons |rows |cuts |sepa|confs|strbr|  dualbound   | primalbound  |  gap   | compl. 
 15.7s|  3200 |   506 |179416 |  55.7 |    43M |  31 | 584 | 594 |   0 |  78k|  0 | 282 | 423 | 3.870444e-01 | 9.484573e-01 | 145.05%|  77.60%
 16.1s|  3300 |   536 |184151 |  55.4 |    43M |  31 | 584 | 594 |1135 |  81k|  2 | 293 | 426 | 3.870444e-01 | 9.484573e-01 | 145.05%|  77.74%
 16.3s|  3400 |   552 |187652 |  54.8 |    44M |  31 | 584 | 594 |1208 |  83k|  7 | 294 | 426 | 3.870444e-01 | 9.484573e-01 | 145.05%|  77.75%
 16.6s|  3500 |   564 |190715 |  54.1 |    45M |  31 | 584 | 594 |1136 |  85k|  2 | 300 | 430 | 3.870444e-01 | 9.484573e-01 | 145.05%|  77.77%
 16.9s|  3600 |   584 |194080 |  53.5 |    46M |  31 | 584 | 594 |1112 |  86k|  0 | 306 | 432 | 4.171858e-01 | 9.484573e-01 | 127.35%|  77.80%
 17.2s|  3700 |   594 |196587 |  52.8 |    46M |  31 | 584 | 594 |1149 |  88k|  5 | 308 | 432 | 4.171858e-01 | 9.484573e-01 | 127.35%|  77.81%
 17.4s|  3800 |   596 |199280 |  52.1 |    46M |  31 | 584 | 594 |1232 |  89k|  2 | 314 | 437 | 4.536368e-01 | 9.484573e-01 | 109.08%|  78.27%
 17.7s|  3900 |   596 |201624 |  51.4 |    46M |  31 | 584 | 594 |   0 |  90k|  0 | 316 | 437 | 4.541954e-01 | 9.484573e-01 | 108.82%|  78.28%
 17.9s|  4000 |   592 |203870 |  50.6 |    47M |  31 | 584 | 594 |1159 |  91k|  0 | 322 | 440 | 4.549327e-01 | 9.484573e-01 | 108.48%|  78.44%
 18.2s|  4100 |   570 |205711 |  49.8 |    47M |  31 | 584 | 594 |1098 |  92k|  1 | 326 | 441 | 4.571215e-01 | 9.484573e-01 | 107.48%|  78.52%
 18.4s|  4200 |   564 |207875 |  49.2 |    47M |  31 | 584 | 594 |1264 |  93k|  0 | 331 | 441 | 4.648616e-01 | 9.484573e-01 | 104.03%|  78.81%
 18.7s|  4300 |   558 |210717 |  48.7 |    47M |  31 | 584 | 594 |1192 |  95k|  1 | 340 | 447 | 4.955171e-01 | 9.484573e-01 |  91.41%|  80.56%
 18.9s|  4400 |   546 |213368 |  48.2 |    47M |  31 | 584 | 594 |1249 |  96k|  0 | 346 | 453 | 5.109963e-01 | 9.484573e-01 |  85.61%|  80.94%
 19.2s|  4500 |   534 |215869 |  47.7 |    47M |  33 | 584 | 594 |1226 |  97k|  1 | 355 | 461 | 5.270902e-01 | 9.484573e-01 |  79.94%|  81.62%
 19.5s|  4600 |   540 |219088 |  47.3 |    47M |  33 | 584 | 595 |1292 |  98k|  6 | 359 | 467 | 5.428734e-01 | 9.484573e-01 |  74.71%|  81.80%
 time | node  | left  |LP iter|LP it/n|mem/heur|mdpt |vars |cons |rows |cuts |sepa|confs|strbr|  dualbound   | primalbound  |  gap   | compl. 
 19.8s|  4700 |   534 |222071 |  47.0 |    47M |  33 | 584 | 596 |1165 |  99k|  2 | 370 | 477 | 5.561174e-01 | 9.484573e-01 |  70.55%|  82.27%
 20.1s|  4800 |   542 |224790 |  46.6 |    48M |  33 | 584 | 596 |1173 | 101k|  0 | 380 | 482 | 5.561191e-01 | 9.484573e-01 |  70.55%|  82.50%
 20.4s|  4900 |   540 |227699 |  46.2 |    48M |  33 | 584 | 596 |1123 | 102k|  1 | 390 | 489 | 5.686446e-01 | 9.484573e-01 |  66.79%|  83.58%
 20.6s|  5000 |   522 |230104 |  45.8 |    48M |  33 | 584 | 596 |1164 | 103k|  0 | 396 | 493 | 5.686446e-01 | 9.484573e-01 |  66.79%|  83.84%
 20.9s|  5100 |   512 |232844 |  45.4 |    48M |  33 | 584 | 596 |1217 | 104k|  2 | 404 | 500 | 5.754533e-01 | 9.484573e-01 |  64.82%|  84.16%
 21.2s|  5200 |   494 |235117 |  45.0 |    48M |  33 | 584 | 596 |1217 | 105k|  2 | 411 | 502 | 5.850607e-01 | 9.484573e-01 |  62.11%|  84.78%
 21.4s|  5300 |   482 |237296 |  44.5 |    48M |  33 | 584 | 596 |1278 | 106k|  2 | 418 | 508 | 5.914609e-01 | 9.484573e-01 |  60.36%|  84.98%
 21.7s|  5400 |   482 |240065 |  44.2 |    48M |  33 | 584 | 596 |1128 | 108k|  1 | 423 | 512 | 6.041031e-01 | 9.484573e-01 |  57.00%|  85.22%
 21.9s|  5500 |   462 |241895 |  43.7 |    48M |  33 | 584 | 596 |   0 | 109k|  0 | 428 | 512 | 6.065671e-01 | 9.484573e-01 |  56.36%|  85.84%
 22.1s|  5600 |   450 |243910 |  43.3 |    48M |  33 | 584 | 596 |1238 | 109k|  2 | 432 | 515 | 6.083668e-01 | 9.484573e-01 |  55.90%|  86.18%
 22.4s|  5700 |   428 |245968 |  42.9 |    48M |  33 | 584 | 596 |1203 | 110k|  3 | 440 | 519 | 6.156505e-01 | 9.484573e-01 |  54.06%|  86.60%
 22.6s|  5800 |   418 |248101 |  42.5 |    48M |  33 | 584 | 596 |1200 | 111k|  5 | 447 | 526 | 6.285044e-01 | 9.484573e-01 |  50.91%|  87.06%
 22.9s|  5900 |   396 |250307 |  42.2 |    48M |  33 | 584 | 596 |1141 | 112k|  2 | 454 | 530 | 6.342652e-01 | 9.484573e-01 |  49.54%|  87.52%
 23.2s|  6000 |   382 |253159 |  42.0 |    48M |  33 | 584 | 596 |1247 | 113k|  0 | 462 | 536 | 6.374223e-01 | 9.484573e-01 |  48.80%|  88.05%
 23.5s|  6100 |   362 |255527 |  41.7 |    48M |  33 | 584 | 596 |1230 | 114k|  2 | 468 | 540 | 6.550665e-01 | 9.484573e-01 |  44.79%|  88.76%
 time | node  | left  |LP iter|LP it/n|mem/heur|mdpt |vars |cons |rows |cuts |sepa|confs|strbr|  dualbound   | primalbound  |  gap   | compl. 
 23.7s|  6200 |   352 |257949 |  41.4 |    48M |  33 | 584 | 596 |1263 | 115k|  6 | 472 | 544 | 6.679858e-01 | 9.484573e-01 |  41.99%|  88.87%
 24.0s|  6300 |   344 |260283 |  41.1 |    48M |  33 | 584 | 596 |1137 | 116k|  1 | 477 | 546 | 6.679858e-01 | 9.484573e-01 |  41.99%|  89.06%
 24.2s|  6400 |   328 |262209 |  40.8 |    48M |  33 | 584 | 596 |1220 | 117k|  6 | 479 | 546 | 6.769973e-01 | 9.484573e-01 |  40.10%|  89.52%
 24.5s|  6500 |   296 |264069 |  40.4 |    48M |  33 | 584 | 596 |1443 | 118k|  6 | 489 | 551 | 6.891011e-01 | 9.484573e-01 |  37.64%|  89.99%
 24.8s|  6600 |   286 |266855 |  40.2 |    48M |  33 | 584 | 596 |1181 | 119k|  0 | 501 | 561 | 6.932929e-01 | 9.484573e-01 |  36.80%|  90.48%
 25.0s|  6700 |   280 |269553 |  40.0 |    48M |  33 | 584 | 596 |1191 | 120k|  0 | 511 | 567 | 6.932931e-01 | 9.484573e-01 |  36.80%|  90.61%
 25.3s|  6800 |   280 |272816 |  39.9 |    48M |  33 | 584 | 596 |1241 | 121k|  4 | 526 | 583 | 6.932956e-01 | 9.484573e-01 |  36.80%|  90.80%
 25.6s|  6900 |   256 |274984 |  39.7 |    48M |  33 | 584 | 596 |1177 | 122k|  0 | 536 | 588 | 6.954532e-01 | 9.484573e-01 |  36.38%|  91.02%
 25.8s|  7000 |   244 |277481 |  39.4 |    48M |  33 | 584 | 596 |1259 | 123k|  0 | 540 | 589 | 7.042356e-01 | 9.484573e-01 |  34.68%|  91.17%
 26.1s|  7100 |   234 |279598 |  39.2 |    48M |  33 | 584 | 596 |1199 | 124k|  0 | 545 | 592 | 7.188803e-01 | 9.484573e-01 |  31.94%|  91.51%
 26.4s|  7200 |   224 |282004 |  39.0 |    48M |  33 | 584 | 596 |1168 | 126k|  0 | 554 | 598 | 7.242497e-01 | 9.484573e-01 |  30.96%|  91.70%
 26.8s|  7300 |   202 |284118 |  38.7 |    48M |  33 | 584 | 596 |1208 | 126k|  0 | 562 | 601 | 7.294411e-01 | 9.484573e-01 |  30.03%|  92.03%
 27.0s|  7400 |   180 |286192 |  38.5 |    48M |  33 | 584 | 596 |   0 | 127k|  0 | 567 | 604 | 7.353658e-01 | 9.484573e-01 |  28.98%|  92.67%
 27.3s|  7500 |   150 |288810 |  38.3 |    48M |  33 | 584 | 596 |1254 | 128k|  2 | 574 | 609 | 7.559273e-01 | 9.484573e-01 |  25.47%|  94.43%
 27.5s|  7600 |   124 |291109 |  38.1 |    48M |  33 | 584 | 597 |1128 | 129k|  0 | 583 | 614 | 7.613931e-01 | 9.484573e-01 |  24.57%|  94.85%
 time | node  | left  |LP iter|LP it/n|mem/heur|mdpt |vars |cons |rows |cuts |sepa|confs|strbr|  dualbound   | primalbound  |  gap   | compl. 
 27.7s|  7700 |    96 |293272 |  37.9 |    48M |  33 | 584 | 597 |1190 | 130k|  2 | 587 | 619 | 7.769798e-01 | 9.484573e-01 |  22.07%|  95.59%
 28.0s|  7800 |    64 |295833 |  37.8 |    48M |  33 | 584 | 597 |1174 | 131k|  2 | 596 | 624 | 7.935686e-01 | 9.484573e-01 |  19.52%|  96.53%
 28.3s|  7900 |    27 |298025 |  37.6 |    48M |  33 | 584 | 597 |1034 | 132k|  3 | 605 | 630 | 8.041705e-01 | 9.484573e-01 |  17.94%|  98.40%

SCIP Status        : problem is solved [optimal solution found]
Solving Time (sec) : 28.38
Solving Nodes      : 7937
Primal Bound       : +9.48457341274508e-01 (11 solutions)
Dual Bound         : +9.48457341274508e-01
Gap                : 0.00 %


--- Reading solution for model GAMS_MODEL
***
*** Solver did not provide marginals for model GAMS_MODEL
***
--- Executing after solve: elapsed 0:00:28.457
--- model.gms(2022) 3 Mb
--- model.gms(2985) 5 Mb
--- Putfile results /local/scratch/a/sgusev/repos/k_means/data/gams_scip_gdp.hull_exact/no_mode/2026-02-15_22-15-40/original/results.dat
--- Putfile statresults /local/scratch/a/sgusev/repos/k_means/data/gams_scip_gdp.hull_exact/no_mode/2026-02-15_22-15-40/original/resultsstat.dat
*** Status: Normal completion
--- Job model.gms Stop 02/15/26 22:16:09 elapsed 0:00:28.458
Original problem solved. Time taken: 29.0562846660614 seconds
Original objective value: 0.948457341274507
